# Objective value = 252
x0,1_3 0
x0,1_4 0
x0,1_6 0
x0,1_7 0
x0,1_10 0
x0,1_11 0
x0,1_13 0
x0,1_14 0
x0,1_18 0
x0,1_22 0
x0,1_24 0
x0,1_28 0
x0,1_33 0
x0,1_34 0
x0,1_36 0
x0,1_38 0
x0,1_40 0
x0,1_41 0
x0,1_46 0
x0,1_52 0
x0,1_74 0
x0,2_3 0
x0,2_4 0
x0,2_6 0
x0,2_7 0
x0,2_10 0
x0,2_11 0
x0,2_13 0
x0,2_14 0
x0,2_18 0
x0,2_22 1
x0,2_24 0
x0,2_28 0
x0,2_33 0
x0,2_34 0
x0,2_36 0
x0,2_38 0
x0,2_40 0
x0,2_41 0
x0,2_46 0
x0,2_52 0
x0,2_74 0
x0,3_3 0
x0,3_4 0
x0,3_6 0
x0,3_7 0
x0,3_10 0
x0,3_11 0
x0,3_13 0
x0,3_14 0
x0,3_18 0
x0,3_22 0
x0,3_24 0
x0,3_28 0
x0,3_33 1
x0,3_34 0
x0,3_36 0
x0,3_38 0
x0,3_40 0
x0,3_41 0
x0,3_46 0
x0,3_52 0
x0,3_74 0
x0,4_3 0
x0,4_4 0
x0,4_6 0
x0,4_7 0
x0,4_10 0
x0,4_11 0
x0,4_13 0
x0,4_14 0
x0,4_18 0
x0,4_22 0
x0,4_24 0
x0,4_28 0
x0,4_33 0
x0,4_34 0
x0,4_36 1
x0,4_38 0
x0,4_40 0
x0,4_41 0
x0,4_46 0
x0,4_52 0
x0,4_74 0
x0,5_3 0
x0,5_4 0
x0,5_6 0
x0,5_7 0
x0,5_10 0
x0,5_11 0
x0,5_13 0
x0,5_14 0
x0,5_18 0
x0,5_22 0
x0,5_24 0
x0,5_28 0
x0,5_33 0
x0,5_34 0
x0,5_36 0
x0,5_38 0
x0,5_40 1
x0,5_41 0
x0,5_46 0
x0,5_52 0
x0,5_74 0
x0,6_3 0
x0,6_4 0
x0,6_6 0
x0,6_7 0
x0,6_10 0
x0,6_11 0
x0,6_13 0
x0,6_14 0
x0,6_18 0
x0,6_22 0
x0,6_24 0
x0,6_28 0
x0,6_33 0
x0,6_34 0
x0,6_36 0
x0,6_38 0
x0,6_40 0
x0,6_41 0
x0,6_46 1
x0,6_52 0
x0,6_74 0
x0,7_3 0
x0,7_4 0
x0,7_6 0
x0,7_7 0
x0,7_10 0
x0,7_11 0
x0,7_13 0
x0,7_14 0
x0,7_18 0
x0,7_22 0
x0,7_24 0
x0,7_28 0
x0,7_33 0
x0,7_34 0
x0,7_36 0
x0,7_38 0
x0,7_40 0
x0,7_41 0
x0,7_46 0
x0,7_52 0
x0,7_74 1
x1,2_3 0
x1,2_4 0
x1,2_6 0
x1,2_7 0
x1,2_10 0
x1,2_11 0
x1,2_13 0
x1,2_14 0
x1,2_18 0
x1,2_22 0
x1,2_24 0
x1,2_28 0
x1,2_33 0
x1,2_34 0
x1,2_36 0
x1,2_38 0
x1,2_40 0
x1,2_41 0
x1,2_46 0
x1,2_52 0
x1,2_74 0
x1,3_3 0
x1,3_4 0
x1,3_6 0
x1,3_7 0
x1,3_10 0
x1,3_11 0
x1,3_13 0
x1,3_14 0
x1,3_18 0
x1,3_22 0
x1,3_24 0
x1,3_28 0
x1,3_33 0
x1,3_34 0
x1,3_36 0
x1,3_38 0
x1,3_40 0
x1,3_41 0
x1,3_46 0
x1,3_52 0
x1,3_74 0
x1,4_3 0
x1,4_4 0
x1,4_6 0
x1,4_7 0
x1,4_10 0
x1,4_11 0
x1,4_13 0
x1,4_14 0
x1,4_18 0
x1,4_22 0
x1,4_24 0
x1,4_28 0
x1,4_33 0
x1,4_34 0
x1,4_36 0
x1,4_38 0
x1,4_40 0
x1,4_41 0
x1,4_46 0
x1,4_52 0
x1,4_74 0
x1,5_3 0
x1,5_4 0
x1,5_6 0
x1,5_7 0
x1,5_10 0
x1,5_11 0
x1,5_13 0
x1,5_14 0
x1,5_18 0
x1,5_22 0
x1,5_24 0
x1,5_28 0
x1,5_33 0
x1,5_34 0
x1,5_36 0
x1,5_38 0
x1,5_40 0
x1,5_41 0
x1,5_46 0
x1,5_52 0
x1,5_74 0
x1,6_3 0
x1,6_4 0
x1,6_6 0
x1,6_7 0
x1,6_10 0
x1,6_11 0
x1,6_13 0
x1,6_14 0
x1,6_18 0
x1,6_22 0
x1,6_24 0
x1,6_28 0
x1,6_33 0
x1,6_34 0
x1,6_36 0
x1,6_38 0
x1,6_40 0
x1,6_41 0
x1,6_46 0
x1,6_52 0
x1,6_74 0
x1,7_3 0
x1,7_4 0
x1,7_6 0
x1,7_7 0
x1,7_10 0
x1,7_11 0
x1,7_13 0
x1,7_14 0
x1,7_18 0
x1,7_22 0
x1,7_24 0
x1,7_28 0
x1,7_33 0
x1,7_34 0
x1,7_36 0
x1,7_38 0
x1,7_40 0
x1,7_41 0
x1,7_46 0
x1,7_52 0
x1,7_74 0
x2,3_3 0
x2,3_4 0
x2,3_6 0
x2,3_7 0
x2,3_10 0
x2,3_11 1
x2,3_13 0
x2,3_14 0
x2,3_18 0
x2,3_22 0
x2,3_24 0
x2,3_28 0
x2,3_33 0
x2,3_34 0
x2,3_36 0
x2,3_38 0
x2,3_40 0
x2,3_41 0
x2,3_46 0
x2,3_52 0
x2,3_74 0
x2,4_3 0
x2,4_4 0
x2,4_6 0
x2,4_7 0
x2,4_10 0
x2,4_11 0
x2,4_13 0
x2,4_14 1
x2,4_18 0
x2,4_22 0
x2,4_24 0
x2,4_28 0
x2,4_33 0
x2,4_34 0
x2,4_36 0
x2,4_38 0
x2,4_40 0
x2,4_41 0
x2,4_46 0
x2,4_52 0
x2,4_74 0
x2,5_3 0
x2,5_4 0
x2,5_6 0
x2,5_7 0
x2,5_10 0
x2,5_11 0
x2,5_13 0
x2,5_14 0
x2,5_18 1
x2,5_22 0
x2,5_24 0
x2,5_28 0
x2,5_33 0
x2,5_34 0
x2,5_36 0
x2,5_38 0
x2,5_40 0
x2,5_41 0
x2,5_46 0
x2,5_52 0
x2,5_74 0
x2,6_3 0
x2,6_4 0
x2,6_6 0
x2,6_7 0
x2,6_10 0
x2,6_11 0
x2,6_13 0
x2,6_14 0
x2,6_18 0
x2,6_22 0
x2,6_24 1
x2,6_28 0
x2,6_33 0
x2,6_34 0
x2,6_36 0
x2,6_38 0
x2,6_40 0
x2,6_41 0
x2,6_46 0
x2,6_52 0
x2,6_74 0
x2,7_3 0
x2,7_4 0
x2,7_6 0
x2,7_7 0
x2,7_10 0
x2,7_11 0
x2,7_13 0
x2,7_14 0
x2,7_18 0
x2,7_22 0
x2,7_24 0
x2,7_28 0
x2,7_33 0
x2,7_34 0
x2,7_36 0
x2,7_38 0
x2,7_40 0
x2,7_41 0
x2,7_46 0
x2,7_52 1
x2,7_74 0
x3,4_3 1
x3,4_4 0
x3,4_6 0
x3,4_7 0
x3,4_10 0
x3,4_11 0
x3,4_13 0
x3,4_14 0
x3,4_18 0
x3,4_22 0
x3,4_24 0
x3,4_28 0
x3,4_33 0
x3,4_34 0
x3,4_36 0
x3,4_38 0
x3,4_40 0
x3,4_41 0
x3,4_46 0
x3,4_52 0
x3,4_74 0
x3,5_3 0
x3,5_4 0
x3,5_6 0
x3,5_7 1
x3,5_10 0
x3,5_11 0
x3,5_13 0
x3,5_14 0
x3,5_18 0
x3,5_22 0
x3,5_24 0
x3,5_28 0
x3,5_33 0
x3,5_34 0
x3,5_36 0
x3,5_38 0
x3,5_40 0
x3,5_41 0
x3,5_46 0
x3,5_52 0
x3,5_74 0
x3,6_3 0
x3,6_4 0
x3,6_6 0
x3,6_7 0
x3,6_10 0
x3,6_11 0
x3,6_13 1
x3,6_14 0
x3,6_18 0
x3,6_22 0
x3,6_24 0
x3,6_28 0
x3,6_33 0
x3,6_34 0
x3,6_36 0
x3,6_38 0
x3,6_40 0
x3,6_41 0
x3,6_46 0
x3,6_52 0
x3,6_74 0
x3,7_3 0
x3,7_4 0
x3,7_6 0
x3,7_7 0
x3,7_10 0
x3,7_11 0
x3,7_13 0
x3,7_14 0
x3,7_18 0
x3,7_22 0
x3,7_24 0
x3,7_28 0
x3,7_33 0
x3,7_34 0
x3,7_36 0
x3,7_38 0
x3,7_40 0
x3,7_41 1
x3,7_46 0
x3,7_52 0
x3,7_74 0
x4,5_3 0
x4,5_4 1
x4,5_6 0
x4,5_7 0
x4,5_10 0
x4,5_11 0
x4,5_13 0
x4,5_14 0
x4,5_18 0
x4,5_22 0
x4,5_24 0
x4,5_28 0
x4,5_33 0
x4,5_34 0
x4,5_36 0
x4,5_38 0
x4,5_40 0
x4,5_41 0
x4,5_46 0
x4,5_52 0
x4,5_74 0
x4,6_3 0
x4,6_4 0
x4,6_6 0
x4,6_7 0
x4,6_10 1
x4,6_11 0
x4,6_13 0
x4,6_14 0
x4,6_18 0
x4,6_22 0
x4,6_24 0
x4,6_28 0
x4,6_33 0
x4,6_34 0
x4,6_36 0
x4,6_38 0
x4,6_40 0
x4,6_41 0
x4,6_46 0
x4,6_52 0
x4,6_74 0
x4,7_3 0
x4,7_4 0
x4,7_6 0
x4,7_7 0
x4,7_10 0
x4,7_11 0
x4,7_13 0
x4,7_14 0
x4,7_18 0
x4,7_22 0
x4,7_24 0
x4,7_28 0
x4,7_33 0
x4,7_34 0
x4,7_36 0
x4,7_38 1
x4,7_40 0
x4,7_41 0
x4,7_46 0
x4,7_52 0
x4,7_74 0
x5,6_3 0
x5,6_4 0
x5,6_6 1
x5,6_7 0
x5,6_10 0
x5,6_11 0
x5,6_13 0
x5,6_14 0
x5,6_18 0
x5,6_22 0
x5,6_24 0
x5,6_28 0
x5,6_33 0
x5,6_34 0
x5,6_36 0
x5,6_38 0
x5,6_40 0
x5,6_41 0
x5,6_46 0
x5,6_52 0
x5,6_74 0
x5,7_3 0
x5,7_4 0
x5,7_6 0
x5,7_7 0
x5,7_10 0
x5,7_11 0
x5,7_13 0
x5,7_14 0
x5,7_18 0
x5,7_22 0
x5,7_24 0
x5,7_28 0
x5,7_33 0
x5,7_34 1
x5,7_36 0
x5,7_38 0
x5,7_40 0
x5,7_41 0
x5,7_46 0
x5,7_52 0
x5,7_74 0
x6,7_3 0
x6,7_4 0
x6,7_6 0
x6,7_7 0
x6,7_10 0
x6,7_11 0
x6,7_13 0
x6,7_14 0
x6,7_18 0
x6,7_22 0
x6,7_24 0
x6,7_28 1
x6,7_33 0
x6,7_34 0
x6,7_36 0
x6,7_38 0
x6,7_40 0
x6,7_41 0
x6,7_46 0
x6,7_52 0
x6,7_74 0
p0 0
p1 1
p2 22
p3 33
p4 36
p5 40
p6 46
p7 74
